/* Recolha de lixo minimizando a distância total percorrida */




/* Objective Function */

min: 3*x0_1 + 3*x1_2 + 3*x1_10 + 4*x2_3 + 4*x2_24 + 2*x3_4 + 2*x3_17 + 8*x4_5 + 2*x5_6 + 4*x6_7 + 4*x7_24
+ 4*x7_8 + 2*x8_9 + 8*x9_0 + 2*x10_11 + 3*x11_12 + 1*x12_13 + 2*x13_8 + 2*x13_14 + 2*x14_15 + 1*x15_16 +
1*x16_10 + 2*x15_24 + 3*x24_19 + 1*x19_20 + 1*x20_21 + 3*x21_6 + 1*x21_22 + 3*x22_23 + 1*x23_17 + 1*x17_18 +
2*x18_19 ;



/*

   Definição das variáveis de decisão

   variáveis de decisão:

   xi_j: Número de vezes que o caminhão desloca-se do vértice i para o vértice j.


 */

 /* Restrições */

x0_1 = x1_10 + x1_2;
x0_1 = x9_0;
x1_2 = x2_24 + x2_3;
x2_3 = x3_17 + x3_4;
x3_4 = x4_5;
x4_5 = x5_6;
x5_6 + x21_6 = x6_7;
x6_7 = x7_24 + x7_8;
x7_8 + x13_8 = x8_9;
x8_9 = x9_0;
x1_10 + x16_10 = x10_11;
x10_11 = x11_12;
x11_12 = x12_13;
x12_13 = x13_14 + x13_8;
x13_14 = x14_15;
x14_15 = x15_24 + x15_16;
x15_16 = x16_10;
x3_17 + x23_17 = x17_18;
x17_18 = x18_19;
x18_19 + x24_19 = x19_20;
x19_20 = x20_21;
x20_21 = x21_22 + x21_6;
x21_22 = x22_23;
x22_23 = x23_17;
x2_24 + x15_24 + x7_24 = x24_19;


/* Restrições de não negatividade */

x0_1 >=1 ;
x1_2 >=1 ;
x1_10 >=1; 
x2_3 >=1;
x2_24 >=1; 
x3_4 >=1;
x3_17 >=1;
x4_5 >=1; 
x5_6 >=1; 
x6_7 >=1; 
x7_8 >=1; 
x7_24 >=1; 
x8_9 >=1;
x9_0 >=1;
x10_11 >=1; 
x11_12>=1; 
x12_13 >=1; 
x13_8 >=1;
x13_14 >=1; 
x14_15 >=1;
x15_16 >=1; 
x15_24>=1; 
x16_10 >=1; 
x17_18 >=1; 
x18_19 >=1; 
x19_20>=1;
x20_21>=1; 
x21_6 >=1; 
x21_22>=1; 
x22_23 >=1; 
x23_17>=1; 
x24_19 >=1 ;


/* Restrições de integralidade */

int x0_1 , x1_2 , x1_10 , x2_3 , x2_24 , x3_4 , x3_17 ,
x4_5 , x5_6 , x6_7  , x7_8 , x7_24 , x8_9 , x9_0  ,
x10_11 , x11_12, x12_13 , x13_8 , x13_14 , x14_15   ,
x15_16 , x15_24, x16_10 , x17_18 , x18_19 , x19_20  ,
x20_21 , x21_6 , x21_22 , x22_23 , x23_17 , x24_19  ;










